50
150
96
95
91
89
87
86
85
81
78
78
68
67
66
66
65
62
61
60
60
59
58
56
54
51
50
50
49
49
49
48
47
46
46
46
45
45
44
41
41
41
40
36
35
34
33
32
31
27
26
26
